language ESSENCE' 1.0

letting jobs = 102
letting horizon = 786
letting resourcesRenew = 2
letting resourcesNonrenew = 2
letting resourceLimits = [45, 45, 341, 393]
letting successors = [[2, 3, 4, 5, 6, 7, 8, 9, 10, 11, 12, 13, 14, 15, 16, 18, 20, 21, 23, 24, 25, 27, 29, 37, 42, 43], [99, 97, 75, 74, 66, 63, 61, 54, 51, 50, 49, 48, 44, 41, 38, 36, 34, 33], [101, 97, 76, 75, 71, 65, 62, 61, 60, 59, 57, 56, 52, 51, 50, 49, 47, 46, 44, 40, 31], [99, 98, 97, 76, 73, 66, 65, 64, 63, 62, 60, 59, 58, 46, 41, 35, 19], [98, 97, 76, 73, 72, 65, 64, 62, 58, 56, 53, 52, 46, 38, 31, 19], [94, 75, 74, 71, 66, 63, 62, 61, 55, 53, 50, 49, 46, 44, 40, 32, 22], [71, 63, 62, 58, 57, 52, 45, 34, 30, 17], [101, 100, 98, 96, 91, 88, 77, 74, 73, 71, 59, 56, 55, 52, 39, 28], [101, 99, 98, 97, 96, 94, 93, 90, 86, 76, 75, 74, 72, 71, 70, 69, 68, 65, 63, 60, 55, 40], [99, 97, 95, 93, 90, 86, 73, 71, 68, 66, 65, 62, 60, 55, 50, 49, 46, 40], [93, 92, 87, 86, 73, 71, 69, 67, 65, 64, 60, 51, 49, 48, 46, 30], [100, 98, 93, 92, 87, 77, 72, 71, 70, 63, 59, 58, 56, 53, 50, 30], [101, 98, 96, 94, 93, 75, 74, 71, 68, 66, 59, 58, 55, 49, 32], [100, 99, 98, 97, 93, 91, 87, 77, 71, 68, 62, 58, 51, 48, 31], [99, 98, 97, 96, 94, 90, 89, 87, 86, 85, 75, 73, 72, 70, 63, 62, 61, 60, 58, 56, 48], [99, 97, 96, 90, 87, 86, 74, 73, 72, 71, 70, 62, 60, 56, 47, 45], [100, 98, 82, 75, 72, 70, 69, 68, 64, 59, 44, 41], [98, 96, 94, 93, 90, 77, 61, 57, 56, 53, 38], [100, 94, 75, 71, 70, 61, 51, 26], [101, 99, 92, 90, 87, 86, 84, 83, 74, 73, 71, 70, 58, 50, 47, 45], [98, 97, 96, 95, 94, 93, 86, 85, 82, 81, 75, 74, 73, 68, 67, 65, 62, 59, 58, 51], [101, 99, 98, 96, 93, 92, 88, 87, 85, 84, 82, 72, 70, 69, 68, 67, 59, 58], [100, 97, 94, 92, 91, 90, 88, 87, 86, 85, 84, 81, 67, 66, 64, 63, 59, 58], [100, 96, 95, 93, 92, 90, 89, 86, 85, 82, 75, 72, 69, 67, 61, 51], [101, 100, 95, 93, 91, 90, 86, 83, 74, 73, 59, 55, 45], [93, 90, 89, 88, 86, 85, 82, 81, 74, 69, 68, 67, 57, 55], [97, 94, 90, 89, 88, 86, 85, 84, 80, 71, 70, 68, 67, 57], [97, 95, 94, 90, 89, 87, 85, 84, 81, 68, 63, 44], [98, 96, 93, 86, 85, 82, 70, 68, 65, 60, 49], [99, 97, 96, 90, 85, 84, 83, 82, 80, 79, 76, 75, 68, 61], [92, 90, 89, 86, 84, 74, 70, 45], [97, 95, 90, 88, 87, 85, 82, 80, 73, 70, 67, 60], [96, 93, 89, 88, 87, 85, 84, 78, 70, 69, 67, 62], [93, 92, 89, 82, 81, 80, 73, 72, 68, 64, 60], [101, 96, 91, 88, 87, 86, 78, 45], [90, 86, 84, 83, 78, 69, 46], [98, 88, 86, 80, 64, 46], [100, 92, 88, 86, 84, 71, 68, 67, 59], [99, 97, 93, 90, 87, 86, 84, 81, 79, 78, 69], [100, 92, 89, 87, 85, 83, 81, 67, 58], [101, 95, 94, 90, 86, 81, 80, 55], [90, 88, 82, 80, 79, 56], [97, 94, 93, 91, 85, 82, 80, 78], [93, 92, 86, 83, 78, 67], [94, 85, 82, 69, 67], [96, 85, 82, 79, 70], [98, 91, 80, 79, 68], [95, 88, 83, 82, 79], [89, 83, 79, 72], [88, 80, 78, 67], [84, 83, 79, 78], [99, 87, 82, 81], [86, 85, 83, 80], [95, 94, 92, 80], [87, 84, 78], [83, 81, 78], [95, 87, 79], [79, 78], [89, 78], [84, 79], [91, 81], [92, 79], [83, 80], [83, 78], [80, 79], [69], [79], [78], [80], [81], [82], [91], [78], [78], [88], [78], [83], [102], [102], [102], [102], [102], [102], [102], [102], [102], [102], [102], [102], [102], [102], [102], [102], [102], [102], [102], [102], [102], [102], [102], [102], []]
letting durations = [[0], [1, 6, 8], [1, 7, 8], [6, 7, 9], [4, 8, 9], [1, 6, 8], [5, 8, 10], [3, 4, 6], [2, 3, 10], [2, 4, 7], [8, 9, 10], [1, 8, 10], [1, 6, 8], [1, 3, 9], [2, 6, 10], [3, 5, 8], [4, 5, 10], [1, 1, 2], [1, 5, 8], [8, 9, 10], [6, 8, 10], [1, 4, 8], [6, 7, 10], [3, 5, 5], [1, 4, 8], [1, 6, 9], [7, 9, 10], [2, 5, 10], [3, 6, 6], [4, 6, 9], [1, 3, 9], [4, 6, 7], [3, 4, 4], [1, 7, 8], [4, 5, 6], [1, 9, 10], [3, 6, 6], [4, 5, 9], [1, 3, 9], [4, 5, 10], [1, 4, 7], [2, 4, 6], [1, 4, 6], [4, 8, 10], [1, 4, 5], [5, 6, 10], [5, 6, 8], [2, 4, 6], [4, 5, 6], [5, 8, 9], [5, 7, 8], [1, 3, 6], [2, 4, 8], [1, 5, 10], [1, 2, 9], [1, 3, 8], [2, 6, 8], [2, 4, 8], [5, 7, 8], [8, 9, 10], [3, 6, 8], [2, 4, 6], [7, 9, 10], [3, 3, 9], [1, 2, 3], [4, 6, 9], [2, 5, 9], [1, 6, 8], [6, 8, 10], [1, 3, 5], [1, 3, 9], [1, 4, 10], [1, 4, 10], [3, 5, 6], [4, 5, 8], [2, 3, 7], [2, 3, 9], [1, 1, 10], [5, 8, 8], [1, 3, 4], [1, 1, 2], [2, 3, 7], [3, 6, 8], [2, 9, 10], [1, 4, 8], [2, 5, 6], [2, 4, 5], [2, 3, 8], [1, 5, 7], [2, 4, 8], [4, 6, 7], [4, 6, 10], [2, 3, 3], [4, 8, 10], [3, 5, 6], [3, 9, 10], [2, 3, 4], [1, 6, 8], [8, 8, 9], [4, 5, 6], [1, 5, 7], [0]]
letting resourceUsage = [[[0, 0, 0, 0]], [[1, 5, 3, 0], [1, 3, 0, 2], [1, 3, 2, 0]], [[2, 4, 0, 7], [2, 4, 0, 6], [1, 4, 0, 7]], [[4, 3, 6, 0], [3, 2, 0, 5], [3, 2, 0, 4]], [[4, 4, 0, 8], [3, 4, 0, 7], [3, 2, 3, 0]], [[4, 3, 3, 0], [3, 2, 0, 4], [3, 1, 0, 2]], [[4, 2, 0, 3], [3, 2, 6, 0], [3, 2, 0, 2]], [[3, 3, 0, 6], [3, 2, 0, 5], [2, 1, 0, 5]], [[2, 1, 0, 9], [1, 1, 8, 0], [1, 1, 0, 4]], [[5, 1, 0, 6], [4, 1, 0, 3], [4, 1, 4, 0]], [[4, 2, 9, 0], [3, 2, 8, 0], [3, 2, 7, 0]], [[4, 4, 0, 8], [4, 4, 6, 0], [4, 3, 0, 3]], [[4, 4, 8, 0], [3, 2, 0, 3], [1, 2, 0, 2]], [[4, 3, 8, 0], [4, 2, 5, 0], [3, 2, 0, 3]], [[4, 2, 0, 7], [4, 1, 2, 0], [4, 1, 1, 0]], [[3, 3, 1, 0], [3, 1, 2, 0], [3, 1, 1, 0]], [[1, 4, 6, 0], [1, 3, 6, 0], [1, 2, 4, 0]], [[2, 1, 4, 0], [2, 1, 0, 3], [2, 1, 0, 2]], [[4, 5, 2, 0], [2, 4, 0, 3], [2, 3, 0, 1]], [[3, 4, 0, 6], [3, 3, 0, 4], [3, 3, 0, 1]], [[3, 4, 0, 9], [3, 4, 3, 0], [3, 4, 0, 8]], [[3, 3, 10, 0], [3, 2, 9, 0], [3, 1, 0, 1]], [[3, 5, 0, 3], [1, 5, 0, 3], [1, 5, 0, 2]], [[1, 5, 2, 0], [1, 4, 2, 0], [1, 3, 0, 7]], [[4, 5, 9, 0], [3, 4, 8, 0], [3, 4, 7, 0]], [[5, 3, 7, 0], [4, 3, 6, 0], [3, 2, 0, 7]], [[5, 4, 0, 5], [4, 4, 0, 3], [2, 4, 9, 0]], [[4, 5, 0, 6], [4, 4, 4, 0], [4, 4, 0, 5]], [[4, 3, 8, 0], [3, 2, 0, 9], [2, 1, 4, 0]], [[2, 4, 4, 0], [1, 3, 0, 5], [1, 3, 2, 0]], [[3, 3, 0, 10], [2, 2, 2, 0], [1, 1, 1, 0]], [[4, 4, 0, 10], [2, 3, 7, 0], [2, 3, 0, 7]], [[3, 4, 5, 0], [3, 4, 0, 6], [3, 3, 3, 0]], [[5, 3, 0, 6], [4, 3, 0, 5], [3, 3, 0, 4]], [[4, 5, 10, 0], [2, 4, 10, 0], [2, 3, 10, 0]], [[4, 4, 3, 0], [2, 3, 2, 0], [2, 3, 1, 0]], [[5, 2, 0, 2], [2, 1, 5, 0], [1, 1, 0, 2]], [[1, 5, 0, 4], [1, 4, 0, 3], [1, 4, 0, 2]], [[2, 5, 0, 9], [1, 3, 0, 8], [1, 1, 2, 0]], [[4, 2, 0, 4], [3, 2, 5, 0], [3, 2, 2, 0]], [[2, 1, 0, 8], [2, 1, 5, 0], [1, 1, 0, 3]], [[2, 5, 0, 9], [2, 4, 0, 7], [2, 3, 3, 0]], [[2, 4, 0, 5], [2, 4, 2, 0], [2, 3, 2, 0]], [[3, 1, 0, 9], [3, 1, 0, 8], [1, 1, 5, 0]], [[2, 5, 0, 7], [2, 4, 3, 0], [2, 4, 0, 6]], [[2, 3, 4, 0], [1, 2, 0, 2], [1, 2, 2, 0]], [[4, 1, 0, 9], [3, 1, 4, 0], [2, 1, 2, 0]], [[3, 3, 0, 4], [2, 3, 0, 2], [2, 3, 0, 1]], [[5, 4, 0, 4], [4, 4, 7, 0], [3, 3, 0, 2]], [[2, 1, 0, 4], [1, 1, 0, 4], [1, 1, 0, 3]], [[2, 2, 0, 1], [2, 2, 5, 0], [2, 1, 0, 1]], [[2, 4, 0, 9], [2, 2, 3, 0], [2, 2, 2, 0]], [[4, 4, 3, 0], [3, 4, 0, 3], [3, 3, 0, 3]], [[4, 4, 0, 2], [3, 2, 0, 2], [3, 2, 7, 0]], [[4, 4, 0, 2], [4, 4, 0, 1], [2, 4, 0, 1]], [[1, 4, 0, 9], [1, 2, 7, 0], [1, 2, 0, 4]], [[3, 4, 0, 5], [1, 3, 9, 0], [1, 2, 0, 4]], [[4, 4, 7, 0], [3, 3, 6, 0], [1, 2, 0, 3]], [[4, 4, 8, 0], [4, 4, 0, 6], [3, 4, 0, 4]], [[3, 4, 0, 3], [3, 2, 4, 0], [2, 2, 0, 1]], [[3, 4, 6, 0], [2, 4, 0, 1], [2, 4, 2, 0]], [[5, 4, 0, 1], [3, 3, 0, 1], [3, 3, 4, 0]], [[4, 3, 0, 3], [3, 2, 0, 3], [2, 2, 0, 1]], [[4, 5, 6, 0], [2, 5, 0, 9], [2, 5, 0, 8]], [[3, 3, 0, 8], [3, 3, 8, 0], [3, 2, 0, 4]], [[5, 3, 0, 6], [4, 3, 0, 6], [4, 2, 0, 5]], [[4, 5, 8, 0], [3, 5, 5, 0], [3, 5, 4, 0]], [[3, 5, 0, 8], [2, 5, 0, 8], [2, 5, 0, 7]], [[2, 3, 0, 5], [2, 3, 3, 0], [2, 3, 2, 0]], [[5, 3, 0, 5], [4, 3, 7, 0], [3, 3, 6, 0]], [[2, 2, 0, 7], [1, 2, 4, 0], [1, 2, 0, 3]], [[5, 2, 2, 0], [4, 2, 2, 0], [3, 2, 0, 7]], [[3, 4, 6, 0], [3, 3, 0, 7], [3, 3, 4, 0]], [[1, 4, 0, 6], [1, 3, 0, 5], [1, 2, 0, 4]], [[2, 3, 7, 0], [2, 3, 5, 0], [2, 3, 0, 1]], [[4, 3, 0, 10], [3, 3, 0, 7], [3, 3, 0, 5]], [[2, 3, 0, 7], [1, 1, 4, 0], [1, 1, 2, 0]], [[5, 4, 0, 10], [3, 4, 5, 0], [1, 4, 0, 5]], [[3, 3, 8, 0], [2, 2, 8, 0], [2, 2, 0, 6]], [[4, 5, 0, 10], [3, 3, 0, 8], [3, 1, 5, 0]], [[1, 3, 4, 0], [1, 2, 0, 4], [1, 2, 0, 3]], [[4, 4, 7, 0], [3, 3, 0, 4], [3, 2, 7, 0]], [[3, 4, 0, 4], [3, 4, 4, 0], [1, 3, 3, 0]], [[5, 4, 8, 0], [4, 3, 7, 0], [4, 2, 6, 0]], [[4, 3, 0, 9], [4, 3, 4, 0], [4, 3, 1, 0]], [[3, 2, 0, 9], [3, 2, 0, 8], [2, 2, 0, 8]], [[2, 3, 0, 10], [2, 3, 2, 0], [2, 3, 1, 0]], [[5, 5, 0, 4], [5, 3, 2, 0], [5, 2, 0, 3]], [[4, 5, 6, 0], [3, 5, 3, 0], [3, 5, 0, 5]], [[4, 5, 0, 4], [3, 2, 3, 0], [3, 1, 0, 4]], [[5, 3, 8, 0], [3, 2, 0, 3], [3, 1, 0, 1]], [[4, 1, 6, 0], [3, 1, 4, 0], [3, 1, 3, 0]], [[1, 2, 4, 0], [1, 1, 2, 0], [1, 1, 0, 4]], [[3, 5, 0, 6], [3, 5, 0, 4], [2, 5, 0, 3]], [[4, 4, 2, 0], [2, 3, 0, 4], [2, 3, 0, 2]], [[4, 5, 0, 8], [4, 4, 0, 6], [3, 4, 1, 0]], [[4, 4, 0, 10], [3, 3, 5, 0], [3, 3, 2, 0]], [[3, 4, 6, 0], [3, 4, 3, 0], [3, 2, 0, 4]], [[4, 2, 8, 0], [4, 2, 0, 7], [4, 2, 0, 6]], [[4, 3, 9, 0], [3, 3, 8, 0], [2, 2, 7, 0]], [[3, 5, 7, 0], [2, 5, 5, 0], [2, 5, 1, 0]], [[0, 0, 0, 0]]]
